Total weight: 1158.333432431853
Route 1: 0 26 12 80 68 29 24 54 0 
Route 2: 0 92 100 16 61 17 84 8 82 18 0 
Route 3: 0 50 51 9 34 78 0 
Route 4: 0 31 10 63 64 49 36 47 46 45 83 0 
Route 5: 0 6 95 97 37 98 59 96 94 13 0 
Route 6: 0 74 23 67 4 55 25 58 0 
Route 7: 0 2 57 15 43 14 91 85 5 60 89 0 
Route 8: 0 52 7 62 11 19 48 0 
Route 9: 0 27 69 70 32 90 88 0 
Route 10: 0 1 30 20 66 65 71 35 81 33 0 
Route 11: 0 40 21 73 72 39 56 75 22 41 0 
Route 12: 0 28 76 79 3 77 0 
Route 13: 0 87 42 44 38 86 93 99 0 
Route 14: 0 53 0 
